; 
(set-info :status unknown)
(declare-fun var_7_0 () Int)
(declare-fun var_6_0 () Int)
(declare-fun var_5_0 () Int)
(declare-fun var_4_0 () Int)
(declare-fun var_3_0 () Int)
(declare-fun var_2_0 () Int)
(declare-fun var_1_0 () Int)
(declare-fun var_0_0 () Int)
(declare-fun a_0_0_1 () Int)
(declare-fun a_0_0_0 () Int)
(declare-fun a_0_0 () Int)
(declare-fun var_6_1 () Int)
(declare-fun b_0_0_3 () Int)
(declare-fun b_0_0_2 () Int)
(declare-fun b_0_0_1 () Int)
(declare-fun b_0_0_0 () Int)
(declare-fun b_0_5 () Int)
(declare-fun a_5_0_1 () Int)
(declare-fun a_5_0_0 () Int)
(declare-fun a_5_0 () Int)
(declare-fun var_5_1 () Int)
(declare-fun b_5_0_3 () Int)
(declare-fun b_5_0_2 () Int)
(declare-fun b_5_0_1 () Int)
(declare-fun b_5_0_0 () Int)
(declare-fun b_5_6 () Int)
(declare-fun a_7_0_1 () Int)
(declare-fun a_7_0_0 () Int)
(declare-fun a_7_0 () Int)
(declare-fun var_6_2 () Int)
(declare-fun a_4_0_1 () Int)
(declare-fun a_4_0_0 () Int)
(declare-fun a_4_0 () Int)
(declare-fun var_1_1 () Int)
(declare-fun b_4_0_3 () Int)
(declare-fun b_4_0_2 () Int)
(declare-fun b_4_0_1 () Int)
(declare-fun b_4_0_0 () Int)
(declare-fun b_4_8 () Int)
(declare-fun a_6_0_1 () Int)
(declare-fun a_6_0_0 () Int)
(declare-fun a_6_0 () Int)
(declare-fun var_1_2 () Int)
(declare-fun b_6_0_3 () Int)
(declare-fun b_6_0_2 () Int)
(declare-fun b_6_0_1 () Int)
(declare-fun b_6_0_0 () Int)
(declare-fun b_6_8 () Int)
(declare-fun a_1_0_1 () Int)
(declare-fun a_1_0_0 () Int)
(declare-fun a_1_0 () Int)
(declare-fun var_3_1 () Int)
(declare-fun b_1_0_3 () Int)
(declare-fun b_1_0_2 () Int)
(declare-fun b_1_0_1 () Int)
(declare-fun b_1_0_0 () Int)
(declare-fun b_1_8 () Int)
(declare-fun a_9_0_1 () Int)
(declare-fun a_9_0_0 () Int)
(declare-fun a_9_0 () Int)
(declare-fun var_1_3 () Int)
(assert
 (let ((?x30 (ite (= var_7_0 0) 1 0)))
 (let ((?x28 (ite (= var_6_0 0) 1 0)))
 (let ((?x26 (ite (= var_5_0 0) 1 0)))
 (let ((?x24 (ite (= var_4_0 0) 1 0)))
 (let ((?x22 (ite (= var_3_0 0) 1 0)))
 (let ((?x20 (ite (= var_2_0 0) 1 0)))
 (let ((?x18 (ite (= var_1_0 0) 1 0)))
 (let ((?x16 (ite (= var_0_0 0) 1 0)))
 (<= (+ ?x16 ?x18 ?x20 ?x22 ?x24 ?x26 ?x28 ?x30) 4))))))))))
(assert
 (let (($x74 (= var_7_0 339534863)))
 (let (($x71 (= var_6_0 (- 1915015669))))
 (let (($x68 (= var_5_0 (- 847764487))))
 (let (($x65 (= var_4_0 550842615)))
 (let (($x62 (= var_3_0 (- 101975509))))
 (let (($x59 (= var_2_0 (- 1823985145))))
 (let (($x56 (= var_1_0 1673121363)))
 (let (($x53 (= var_0_0 618936046)))
 (let (($x54 (and true $x53)))
 (let (($x57 (and $x54 $x56)))
 (let (($x60 (and $x57 $x59)))
 (let (($x63 (and $x60 $x62)))
 (let (($x66 (and $x63 $x65)))
 (let (($x69 (and $x66 $x68)))
 (let (($x72 (and $x69 $x71)))
 (and $x72 $x74)))))))))))))))))
(assert
 (let (($x85 (<= var_6_0 2147483647)))
 (let (($x83 (>= var_6_0 (- 2147483648))))
 (and $x83 $x85))))
(assert
 (let (($x90 (<= var_4_0 2147483647)))
 (let (($x89 (>= var_4_0 (- 2147483648))))
 (and $x89 $x90))))
(assert
 (let (($x95 (<= a_0_0_0 2147483647)))
 (let (($x94 (>= a_0_0_0 (- 2147483648))))
 (let (($x96 (and $x94 $x95)))
 (let (($x97 (and true $x96)))
 (and $x97 (and (>= a_0_0_1 (- 2147483648)) (<= a_0_0_1 2147483647))))))))
(assert
 (let (($x104 (<= a_0_0 2147483647)))
 (let (($x103 (>= a_0_0 (- 2147483648))))
 (and $x103 $x104))))
(assert
 (and (<= (* a_0_0_0 var_6_0) 2147483647) (>= (* a_0_0_0 var_6_0) (- 2147483648))))
(assert
 (and (<= (* a_0_0_0 var_6_0) 2147483647) (>= (* a_0_0_0 var_6_0) (- 2147483648))))
(assert
 (and (<= (* a_0_0_1 var_4_0) 2147483647) (>= (* a_0_0_1 var_4_0) (- 2147483648))))
(assert
 (and (<= (+ (* a_0_0_0 var_6_0) (* a_0_0_1 var_4_0)) 2147483647) (>= (+ (* a_0_0_0 var_6_0) (* a_0_0_1 var_4_0)) (- 2147483648))))
(assert
 (let (($x103 (>= a_0_0 (- 2147483648))))
 (let (($x104 (<= a_0_0 2147483647)))
 (and $x104 $x103))))
(assert
 (let ((?x93 (* a_0_0_1 var_4_0)))
 (let ((?x88 (* a_0_0_0 var_6_0)))
 (let ((?x112 (+ ?x88 ?x93)))
 (let ((?x125 (+ ?x112 a_0_0)))
 (and (<= ?x125 2147483647) (>= ?x125 (- 2147483648))))))))
(assert
 (let ((?x93 (* a_0_0_1 var_4_0)))
 (let ((?x88 (* a_0_0_0 var_6_0)))
 (let ((?x112 (+ ?x88 ?x93)))
 (let ((?x125 (+ ?x112 a_0_0)))
 (= var_6_1 ?x125))))))
(assert
 (let ((?x144 (ite (= a_0_0 0) 1 0)))
 (let ((?x142 (ite (= a_0_0_1 0) 1 0)))
 (let ((?x138 (ite (= a_0_0_0 0) 1 0)))
 (<= (+ ?x138 ?x142 ?x144) 1)))))
(assert
 (let (($x148 (<= var_6_1 2147483647)))
 (let (($x147 (>= var_6_1 (- 2147483648))))
 (and $x147 $x148))))
(assert
 (let (($x153 (<= var_1_0 2147483647)))
 (let (($x152 (>= var_1_0 (- 2147483648))))
 (and $x152 $x153))))
(assert
 (let (($x158 (<= var_0_0 2147483647)))
 (let (($x157 (>= var_0_0 (- 2147483648))))
 (and $x157 $x158))))
(assert
 (let (($x163 (<= var_3_0 2147483647)))
 (let (($x162 (>= var_3_0 (- 2147483648))))
 (and $x162 $x163))))
(assert
 (let (($x168 (<= b_0_0_0 2147483647)))
 (let (($x167 (>= b_0_0_0 (- 2147483648))))
 (let (($x169 (and $x167 $x168)))
 (let (($x170 (and true $x169)))
 (let (($x174 (and $x170 (and (>= b_0_0_1 (- 2147483648)) (<= b_0_0_1 2147483647)))))
 (let (($x178 (and $x174 (and (>= b_0_0_2 (- 2147483648)) (<= b_0_0_2 2147483647)))))
 (and $x178 (and (>= b_0_0_3 (- 2147483648)) (<= b_0_0_3 2147483647))))))))))
(assert
 (let ((?x192 (ite (= b_0_0_3 0) 1 0)))
 (let ((?x190 (ite (= b_0_0_2 0) 1 0)))
 (let ((?x188 (ite (= b_0_0_1 0) 1 0)))
 (let ((?x186 (ite (= b_0_0_0 0) 1 0)))
 (<= (+ ?x186 ?x188 ?x190 ?x192) 2))))))
(assert
 (let (($x198 (<= b_0_5 2147483647)))
 (let (($x197 (>= b_0_5 (- 2147483648))))
 (and $x197 $x198))))
(assert
 (and (<= (* b_0_0_0 var_6_1) 2147483647) (>= (* b_0_0_0 var_6_1) (- 2147483648))))
(assert
 (and (<= (* b_0_0_0 var_6_1) 2147483647) (>= (* b_0_0_0 var_6_1) (- 2147483648))))
(assert
 (and (<= (* b_0_0_1 var_1_0) 2147483647) (>= (* b_0_0_1 var_1_0) (- 2147483648))))
(assert
 (and (<= (+ (* b_0_0_0 var_6_1) (* b_0_0_1 var_1_0)) 2147483647) (>= (+ (* b_0_0_0 var_6_1) (* b_0_0_1 var_1_0)) (- 2147483648))))
(assert
 (and (<= (* b_0_0_2 var_0_0) 2147483647) (>= (* b_0_0_2 var_0_0) (- 2147483648))))
(assert
 (let ((?x161 (* b_0_0_2 var_0_0)))
 (let ((?x156 (* b_0_0_1 var_1_0)))
 (let ((?x151 (* b_0_0_0 var_6_1)))
 (let ((?x206 (+ ?x151 ?x156)))
 (let ((?x219 (+ ?x206 ?x161)))
 (and (<= ?x219 2147483647) (>= ?x219 (- 2147483648)))))))))
(assert
 (and (<= (* b_0_0_3 var_3_0) 2147483647) (>= (* b_0_0_3 var_3_0) (- 2147483648))))
(assert
 (let ((?x166 (* b_0_0_3 var_3_0)))
 (let ((?x161 (* b_0_0_2 var_0_0)))
 (let ((?x156 (* b_0_0_1 var_1_0)))
 (let ((?x151 (* b_0_0_0 var_6_1)))
 (let ((?x206 (+ ?x151 ?x156)))
 (let ((?x219 (+ ?x206 ?x161)))
 (let ((?x232 (+ ?x219 ?x166)))
 (and (<= ?x232 2147483647) (>= ?x232 (- 2147483648)))))))))))
(assert
 (let (($x197 (>= b_0_5 (- 2147483648))))
 (let (($x198 (<= b_0_5 2147483647)))
 (and $x198 $x197))))
(assert
 (let ((?x166 (* b_0_0_3 var_3_0)))
 (let ((?x161 (* b_0_0_2 var_0_0)))
 (let ((?x156 (* b_0_0_1 var_1_0)))
 (let ((?x151 (* b_0_0_0 var_6_1)))
 (let ((?x206 (+ ?x151 ?x156)))
 (let ((?x219 (+ ?x206 ?x161)))
 (let ((?x232 (+ ?x219 ?x166)))
 (let ((?x245 (+ ?x232 b_0_5)))
 (and (<= ?x245 2147483647) (>= ?x245 (- 2147483648))))))))))))
(assert
 (let ((?x166 (* b_0_0_3 var_3_0)))
 (let ((?x161 (* b_0_0_2 var_0_0)))
 (let ((?x156 (* b_0_0_1 var_1_0)))
 (let ((?x151 (* b_0_0_0 var_6_1)))
 (let ((?x206 (+ ?x151 ?x156)))
 (let ((?x219 (+ ?x206 ?x161)))
 (let ((?x232 (+ ?x219 ?x166)))
 (let ((?x245 (+ ?x232 b_0_5)))
 (>= ?x245 0))))))))))
(assert
 (let (($x256 (<= var_2_0 2147483647)))
 (let (($x255 (>= var_2_0 (- 2147483648))))
 (and $x255 $x256))))
(assert
 (let (($x158 (<= var_0_0 2147483647)))
 (let (($x157 (>= var_0_0 (- 2147483648))))
 (and $x157 $x158))))
(assert
 (let (($x263 (<= a_5_0_0 2147483647)))
 (let (($x262 (>= a_5_0_0 (- 2147483648))))
 (let (($x264 (and $x262 $x263)))
 (let (($x265 (and true $x264)))
 (and $x265 (and (>= a_5_0_1 (- 2147483648)) (<= a_5_0_1 2147483647))))))))
(assert
 (let (($x272 (<= a_5_0 2147483647)))
 (let (($x271 (>= a_5_0 (- 2147483648))))
 (and $x271 $x272))))
(assert
 (and (<= (* a_5_0_0 var_2_0) 2147483647) (>= (* a_5_0_0 var_2_0) (- 2147483648))))
(assert
 (and (<= (* a_5_0_0 var_2_0) 2147483647) (>= (* a_5_0_0 var_2_0) (- 2147483648))))
(assert
 (and (<= (* a_5_0_1 var_0_0) 2147483647) (>= (* a_5_0_1 var_0_0) (- 2147483648))))
(assert
 (and (<= (+ (* a_5_0_0 var_2_0) (* a_5_0_1 var_0_0)) 2147483647) (>= (+ (* a_5_0_0 var_2_0) (* a_5_0_1 var_0_0)) (- 2147483648))))
(assert
 (let (($x271 (>= a_5_0 (- 2147483648))))
 (let (($x272 (<= a_5_0 2147483647)))
 (and $x272 $x271))))
(assert
 (let ((?x261 (* a_5_0_1 var_0_0)))
 (let ((?x259 (* a_5_0_0 var_2_0)))
 (let ((?x280 (+ ?x259 ?x261)))
 (let ((?x293 (+ ?x280 a_5_0)))
 (and (<= ?x293 2147483647) (>= ?x293 (- 2147483648))))))))
(assert
 (let ((?x261 (* a_5_0_1 var_0_0)))
 (let ((?x259 (* a_5_0_0 var_2_0)))
 (let ((?x280 (+ ?x259 ?x261)))
 (let ((?x293 (+ ?x280 a_5_0)))
 (= var_5_1 ?x293))))))
(assert
 (let ((?x311 (ite (= a_5_0 0) 1 0)))
 (let ((?x309 (ite (= a_5_0_1 0) 1 0)))
 (let ((?x305 (ite (= a_5_0_0 0) 1 0)))
 (<= (+ ?x305 ?x309 ?x311) 1)))))
(assert
 (let (($x315 (<= var_5_1 2147483647)))
 (let (($x314 (>= var_5_1 (- 2147483648))))
 (and $x314 $x315))))
(assert
 (let (($x90 (<= var_4_0 2147483647)))
 (let (($x89 (>= var_4_0 (- 2147483648))))
 (and $x89 $x90))))
(assert
 (let (($x256 (<= var_2_0 2147483647)))
 (let (($x255 (>= var_2_0 (- 2147483648))))
 (and $x255 $x256))))
(assert
 (let (($x158 (<= var_0_0 2147483647)))
 (let (($x157 (>= var_0_0 (- 2147483648))))
 (and $x157 $x158))))
(assert
 (let (($x326 (<= b_5_0_0 2147483647)))
 (let (($x325 (>= b_5_0_0 (- 2147483648))))
 (let (($x327 (and $x325 $x326)))
 (let (($x328 (and true $x327)))
 (let (($x332 (and $x328 (and (>= b_5_0_1 (- 2147483648)) (<= b_5_0_1 2147483647)))))
 (let (($x336 (and $x332 (and (>= b_5_0_2 (- 2147483648)) (<= b_5_0_2 2147483647)))))
 (and $x336 (and (>= b_5_0_3 (- 2147483648)) (<= b_5_0_3 2147483647))))))))))
(assert
 (let ((?x350 (ite (= b_5_0_3 0) 1 0)))
 (let ((?x348 (ite (= b_5_0_2 0) 1 0)))
 (let ((?x346 (ite (= b_5_0_1 0) 1 0)))
 (let ((?x344 (ite (= b_5_0_0 0) 1 0)))
 (<= (+ ?x344 ?x346 ?x348 ?x350) 2))))))
(assert
 (let (($x355 (<= b_5_6 2147483647)))
 (let (($x354 (>= b_5_6 (- 2147483648))))
 (and $x354 $x355))))
(assert
 (and (<= (* b_5_0_0 var_5_1) 2147483647) (>= (* b_5_0_0 var_5_1) (- 2147483648))))
(assert
 (and (<= (* b_5_0_0 var_5_1) 2147483647) (>= (* b_5_0_0 var_5_1) (- 2147483648))))
(assert
 (and (<= (* b_5_0_1 var_4_0) 2147483647) (>= (* b_5_0_1 var_4_0) (- 2147483648))))
(assert
 (and (<= (+ (* b_5_0_0 var_5_1) (* b_5_0_1 var_4_0)) 2147483647) (>= (+ (* b_5_0_0 var_5_1) (* b_5_0_1 var_4_0)) (- 2147483648))))
(assert
 (and (<= (* b_5_0_2 var_2_0) 2147483647) (>= (* b_5_0_2 var_2_0) (- 2147483648))))
(assert
 (let ((?x322 (* b_5_0_2 var_2_0)))
 (let ((?x320 (* b_5_0_1 var_4_0)))
 (let ((?x318 (* b_5_0_0 var_5_1)))
 (let ((?x363 (+ ?x318 ?x320)))
 (let ((?x376 (+ ?x363 ?x322)))
 (and (<= ?x376 2147483647) (>= ?x376 (- 2147483648)))))))))
(assert
 (and (<= (* b_5_0_3 var_0_0) 2147483647) (>= (* b_5_0_3 var_0_0) (- 2147483648))))
(assert
 (let ((?x324 (* b_5_0_3 var_0_0)))
 (let ((?x322 (* b_5_0_2 var_2_0)))
 (let ((?x320 (* b_5_0_1 var_4_0)))
 (let ((?x318 (* b_5_0_0 var_5_1)))
 (let ((?x363 (+ ?x318 ?x320)))
 (let ((?x376 (+ ?x363 ?x322)))
 (let ((?x389 (+ ?x376 ?x324)))
 (and (<= ?x389 2147483647) (>= ?x389 (- 2147483648)))))))))))
(assert
 (let (($x354 (>= b_5_6 (- 2147483648))))
 (let (($x355 (<= b_5_6 2147483647)))
 (and $x355 $x354))))
(assert
 (let ((?x324 (* b_5_0_3 var_0_0)))
 (let ((?x322 (* b_5_0_2 var_2_0)))
 (let ((?x320 (* b_5_0_1 var_4_0)))
 (let ((?x318 (* b_5_0_0 var_5_1)))
 (let ((?x363 (+ ?x318 ?x320)))
 (let ((?x376 (+ ?x363 ?x322)))
 (let ((?x389 (+ ?x376 ?x324)))
 (let ((?x402 (+ ?x389 b_5_6)))
 (and (<= ?x402 2147483647) (>= ?x402 (- 2147483648))))))))))))
(assert
 (let ((?x324 (* b_5_0_3 var_0_0)))
 (let ((?x322 (* b_5_0_2 var_2_0)))
 (let ((?x320 (* b_5_0_1 var_4_0)))
 (let ((?x318 (* b_5_0_0 var_5_1)))
 (let ((?x363 (+ ?x318 ?x320)))
 (let ((?x376 (+ ?x363 ?x322)))
 (let ((?x389 (+ ?x376 ?x324)))
 (let ((?x402 (+ ?x389 b_5_6)))
 (< ?x402 0))))))))))
(assert
 (let (($x416 (<= var_7_0 2147483647)))
 (let (($x415 (>= var_7_0 (- 2147483648))))
 (and $x415 $x416))))
(assert
 (let (($x90 (<= var_4_0 2147483647)))
 (let (($x89 (>= var_4_0 (- 2147483648))))
 (and $x89 $x90))))
(assert
 (let (($x423 (<= a_7_0_0 2147483647)))
 (let (($x422 (>= a_7_0_0 (- 2147483648))))
 (let (($x424 (and $x422 $x423)))
 (let (($x425 (and true $x424)))
 (and $x425 (and (>= a_7_0_1 (- 2147483648)) (<= a_7_0_1 2147483647))))))))
(assert
 (let (($x432 (<= a_7_0 2147483647)))
 (let (($x431 (>= a_7_0 (- 2147483648))))
 (and $x431 $x432))))
(assert
 (and (<= (* a_7_0_0 var_7_0) 2147483647) (>= (* a_7_0_0 var_7_0) (- 2147483648))))
(assert
 (and (<= (* a_7_0_0 var_7_0) 2147483647) (>= (* a_7_0_0 var_7_0) (- 2147483648))))
(assert
 (and (<= (* a_7_0_1 var_4_0) 2147483647) (>= (* a_7_0_1 var_4_0) (- 2147483648))))
(assert
 (and (<= (+ (* a_7_0_0 var_7_0) (* a_7_0_1 var_4_0)) 2147483647) (>= (+ (* a_7_0_0 var_7_0) (* a_7_0_1 var_4_0)) (- 2147483648))))
(assert
 (let (($x431 (>= a_7_0 (- 2147483648))))
 (let (($x432 (<= a_7_0 2147483647)))
 (and $x432 $x431))))
(assert
 (let ((?x421 (* a_7_0_1 var_4_0)))
 (let ((?x419 (* a_7_0_0 var_7_0)))
 (let ((?x440 (+ ?x419 ?x421)))
 (let ((?x453 (+ ?x440 a_7_0)))
 (and (<= ?x453 2147483647) (>= ?x453 (- 2147483648))))))))
(assert
 (let ((?x421 (* a_7_0_1 var_4_0)))
 (let ((?x419 (* a_7_0_0 var_7_0)))
 (let ((?x440 (+ ?x419 ?x421)))
 (let ((?x453 (+ ?x440 a_7_0)))
 (= var_6_2 ?x453))))))
(assert
 (let ((?x471 (ite (= a_7_0 0) 1 0)))
 (let ((?x469 (ite (= a_7_0_1 0) 1 0)))
 (let ((?x465 (ite (= a_7_0_0 0) 1 0)))
 (<= (+ ?x465 ?x469 ?x471) 1)))))
(assert
 (let (($x90 (<= var_4_0 2147483647)))
 (let (($x89 (>= var_4_0 (- 2147483648))))
 (and $x89 $x90))))
(assert
 (let (($x256 (<= var_2_0 2147483647)))
 (let (($x255 (>= var_2_0 (- 2147483648))))
 (and $x255 $x256))))
(assert
 (let (($x479 (<= a_4_0_0 2147483647)))
 (let (($x478 (>= a_4_0_0 (- 2147483648))))
 (let (($x480 (and $x478 $x479)))
 (let (($x481 (and true $x480)))
 (and $x481 (and (>= a_4_0_1 (- 2147483648)) (<= a_4_0_1 2147483647))))))))
(assert
 (let (($x488 (<= a_4_0 2147483647)))
 (let (($x487 (>= a_4_0 (- 2147483648))))
 (and $x487 $x488))))
(assert
 (and (<= (* a_4_0_0 var_4_0) 2147483647) (>= (* a_4_0_0 var_4_0) (- 2147483648))))
(assert
 (and (<= (* a_4_0_0 var_4_0) 2147483647) (>= (* a_4_0_0 var_4_0) (- 2147483648))))
(assert
 (and (<= (* a_4_0_1 var_2_0) 2147483647) (>= (* a_4_0_1 var_2_0) (- 2147483648))))
(assert
 (and (<= (+ (* a_4_0_0 var_4_0) (* a_4_0_1 var_2_0)) 2147483647) (>= (+ (* a_4_0_0 var_4_0) (* a_4_0_1 var_2_0)) (- 2147483648))))
(assert
 (let (($x487 (>= a_4_0 (- 2147483648))))
 (let (($x488 (<= a_4_0 2147483647)))
 (and $x488 $x487))))
(assert
 (let ((?x477 (* a_4_0_1 var_2_0)))
 (let ((?x475 (* a_4_0_0 var_4_0)))
 (let ((?x496 (+ ?x475 ?x477)))
 (let ((?x509 (+ ?x496 a_4_0)))
 (and (<= ?x509 2147483647) (>= ?x509 (- 2147483648))))))))
(assert
 (let ((?x477 (* a_4_0_1 var_2_0)))
 (let ((?x475 (* a_4_0_0 var_4_0)))
 (let ((?x496 (+ ?x475 ?x477)))
 (let ((?x509 (+ ?x496 a_4_0)))
 (= var_1_1 ?x509))))))
(assert
 (let ((?x527 (ite (= a_4_0 0) 1 0)))
 (let ((?x525 (ite (= a_4_0_1 0) 1 0)))
 (let ((?x521 (ite (= a_4_0_0 0) 1 0)))
 (<= (+ ?x521 ?x525 ?x527) 1)))))
(assert
 (let (($x531 (<= var_1_1 2147483647)))
 (let (($x530 (>= var_1_1 (- 2147483648))))
 (and $x530 $x531))))
(assert
 (let (($x536 (<= var_6_2 2147483647)))
 (let (($x535 (>= var_6_2 (- 2147483648))))
 (and $x535 $x536))))
(assert
 (let (($x158 (<= var_0_0 2147483647)))
 (let (($x157 (>= var_0_0 (- 2147483648))))
 (and $x157 $x158))))
(assert
 (let (($x90 (<= var_4_0 2147483647)))
 (let (($x89 (>= var_4_0 (- 2147483648))))
 (and $x89 $x90))))
(assert
 (let (($x545 (<= b_4_0_0 2147483647)))
 (let (($x544 (>= b_4_0_0 (- 2147483648))))
 (let (($x546 (and $x544 $x545)))
 (let (($x547 (and true $x546)))
 (let (($x551 (and $x547 (and (>= b_4_0_1 (- 2147483648)) (<= b_4_0_1 2147483647)))))
 (let (($x555 (and $x551 (and (>= b_4_0_2 (- 2147483648)) (<= b_4_0_2 2147483647)))))
 (and $x555 (and (>= b_4_0_3 (- 2147483648)) (<= b_4_0_3 2147483647))))))))))
(assert
 (let ((?x569 (ite (= b_4_0_3 0) 1 0)))
 (let ((?x567 (ite (= b_4_0_2 0) 1 0)))
 (let ((?x565 (ite (= b_4_0_1 0) 1 0)))
 (let ((?x563 (ite (= b_4_0_0 0) 1 0)))
 (<= (+ ?x563 ?x565 ?x567 ?x569) 2))))))
(assert
 (let (($x574 (<= b_4_8 2147483647)))
 (let (($x573 (>= b_4_8 (- 2147483648))))
 (and $x573 $x574))))
(assert
 (and (<= (* b_4_0_0 var_1_1) 2147483647) (>= (* b_4_0_0 var_1_1) (- 2147483648))))
(assert
 (and (<= (* b_4_0_0 var_1_1) 2147483647) (>= (* b_4_0_0 var_1_1) (- 2147483648))))
(assert
 (and (<= (* b_4_0_1 var_6_2) 2147483647) (>= (* b_4_0_1 var_6_2) (- 2147483648))))
(assert
 (and (<= (+ (* b_4_0_0 var_1_1) (* b_4_0_1 var_6_2)) 2147483647) (>= (+ (* b_4_0_0 var_1_1) (* b_4_0_1 var_6_2)) (- 2147483648))))
(assert
 (and (<= (* b_4_0_2 var_0_0) 2147483647) (>= (* b_4_0_2 var_0_0) (- 2147483648))))
(assert
 (let ((?x541 (* b_4_0_2 var_0_0)))
 (let ((?x539 (* b_4_0_1 var_6_2)))
 (let ((?x534 (* b_4_0_0 var_1_1)))
 (let ((?x582 (+ ?x534 ?x539)))
 (let ((?x595 (+ ?x582 ?x541)))
 (and (<= ?x595 2147483647) (>= ?x595 (- 2147483648)))))))))
(assert
 (and (<= (* b_4_0_3 var_4_0) 2147483647) (>= (* b_4_0_3 var_4_0) (- 2147483648))))
(assert
 (let ((?x543 (* b_4_0_3 var_4_0)))
 (let ((?x541 (* b_4_0_2 var_0_0)))
 (let ((?x539 (* b_4_0_1 var_6_2)))
 (let ((?x534 (* b_4_0_0 var_1_1)))
 (let ((?x582 (+ ?x534 ?x539)))
 (let ((?x595 (+ ?x582 ?x541)))
 (let ((?x608 (+ ?x595 ?x543)))
 (and (<= ?x608 2147483647) (>= ?x608 (- 2147483648)))))))))))
(assert
 (let (($x573 (>= b_4_8 (- 2147483648))))
 (let (($x574 (<= b_4_8 2147483647)))
 (and $x574 $x573))))
(assert
 (let ((?x543 (* b_4_0_3 var_4_0)))
 (let ((?x541 (* b_4_0_2 var_0_0)))
 (let ((?x539 (* b_4_0_1 var_6_2)))
 (let ((?x534 (* b_4_0_0 var_1_1)))
 (let ((?x582 (+ ?x534 ?x539)))
 (let ((?x595 (+ ?x582 ?x541)))
 (let ((?x608 (+ ?x595 ?x543)))
 (let ((?x621 (+ ?x608 b_4_8)))
 (and (<= ?x621 2147483647) (>= ?x621 (- 2147483648))))))))))))
(assert
 (let ((?x543 (* b_4_0_3 var_4_0)))
 (let ((?x541 (* b_4_0_2 var_0_0)))
 (let ((?x539 (* b_4_0_1 var_6_2)))
 (let ((?x534 (* b_4_0_0 var_1_1)))
 (let ((?x582 (+ ?x534 ?x539)))
 (let ((?x595 (+ ?x582 ?x541)))
 (let ((?x608 (+ ?x595 ?x543)))
 (let ((?x621 (+ ?x608 b_4_8)))
 (< ?x621 0))))))))))
(assert
 (let (($x536 (<= var_6_2 2147483647)))
 (let (($x535 (>= var_6_2 (- 2147483648))))
 (and $x535 $x536))))
(assert
 (let (($x158 (<= var_0_0 2147483647)))
 (let (($x157 (>= var_0_0 (- 2147483648))))
 (and $x157 $x158))))
(assert
 (let (($x639 (<= a_6_0_0 2147483647)))
 (let (($x638 (>= a_6_0_0 (- 2147483648))))
 (let (($x640 (and $x638 $x639)))
 (let (($x641 (and true $x640)))
 (and $x641 (and (>= a_6_0_1 (- 2147483648)) (<= a_6_0_1 2147483647))))))))
(assert
 (let (($x648 (<= a_6_0 2147483647)))
 (let (($x647 (>= a_6_0 (- 2147483648))))
 (and $x647 $x648))))
(assert
 (and (<= (* a_6_0_0 var_6_2) 2147483647) (>= (* a_6_0_0 var_6_2) (- 2147483648))))
(assert
 (and (<= (* a_6_0_0 var_6_2) 2147483647) (>= (* a_6_0_0 var_6_2) (- 2147483648))))
(assert
 (and (<= (* a_6_0_1 var_0_0) 2147483647) (>= (* a_6_0_1 var_0_0) (- 2147483648))))
(assert
 (and (<= (+ (* a_6_0_0 var_6_2) (* a_6_0_1 var_0_0)) 2147483647) (>= (+ (* a_6_0_0 var_6_2) (* a_6_0_1 var_0_0)) (- 2147483648))))
(assert
 (let (($x647 (>= a_6_0 (- 2147483648))))
 (let (($x648 (<= a_6_0 2147483647)))
 (and $x648 $x647))))
(assert
 (let ((?x637 (* a_6_0_1 var_0_0)))
 (let ((?x635 (* a_6_0_0 var_6_2)))
 (let ((?x656 (+ ?x635 ?x637)))
 (let ((?x669 (+ ?x656 a_6_0)))
 (and (<= ?x669 2147483647) (>= ?x669 (- 2147483648))))))))
(assert
 (let ((?x637 (* a_6_0_1 var_0_0)))
 (let ((?x635 (* a_6_0_0 var_6_2)))
 (let ((?x656 (+ ?x635 ?x637)))
 (let ((?x669 (+ ?x656 a_6_0)))
 (= var_1_2 ?x669))))))
(assert
 (let ((?x687 (ite (= a_6_0 0) 1 0)))
 (let ((?x685 (ite (= a_6_0_1 0) 1 0)))
 (let ((?x681 (ite (= a_6_0_0 0) 1 0)))
 (<= (+ ?x681 ?x685 ?x687) 1)))))
(assert
 (let (($x691 (<= var_1_2 2147483647)))
 (let (($x690 (>= var_1_2 (- 2147483648))))
 (and $x690 $x691))))
(assert
 (let (($x536 (<= var_6_2 2147483647)))
 (let (($x535 (>= var_6_2 (- 2147483648))))
 (and $x535 $x536))))
(assert
 (let (($x416 (<= var_7_0 2147483647)))
 (let (($x415 (>= var_7_0 (- 2147483648))))
 (and $x415 $x416))))
(assert
 (let (($x315 (<= var_5_1 2147483647)))
 (let (($x314 (>= var_5_1 (- 2147483648))))
 (and $x314 $x315))))
(assert
 (let (($x702 (<= b_6_0_0 2147483647)))
 (let (($x701 (>= b_6_0_0 (- 2147483648))))
 (let (($x703 (and $x701 $x702)))
 (let (($x704 (and true $x703)))
 (let (($x708 (and $x704 (and (>= b_6_0_1 (- 2147483648)) (<= b_6_0_1 2147483647)))))
 (let (($x712 (and $x708 (and (>= b_6_0_2 (- 2147483648)) (<= b_6_0_2 2147483647)))))
 (and $x712 (and (>= b_6_0_3 (- 2147483648)) (<= b_6_0_3 2147483647))))))))))
(assert
 (let ((?x726 (ite (= b_6_0_3 0) 1 0)))
 (let ((?x724 (ite (= b_6_0_2 0) 1 0)))
 (let ((?x722 (ite (= b_6_0_1 0) 1 0)))
 (let ((?x720 (ite (= b_6_0_0 0) 1 0)))
 (<= (+ ?x720 ?x722 ?x724 ?x726) 2))))))
(assert
 (let (($x731 (<= b_6_8 2147483647)))
 (let (($x730 (>= b_6_8 (- 2147483648))))
 (and $x730 $x731))))
(assert
 (and (<= (* b_6_0_0 var_1_2) 2147483647) (>= (* b_6_0_0 var_1_2) (- 2147483648))))
(assert
 (and (<= (* b_6_0_0 var_1_2) 2147483647) (>= (* b_6_0_0 var_1_2) (- 2147483648))))
(assert
 (and (<= (* b_6_0_1 var_6_2) 2147483647) (>= (* b_6_0_1 var_6_2) (- 2147483648))))
(assert
 (and (<= (+ (* b_6_0_0 var_1_2) (* b_6_0_1 var_6_2)) 2147483647) (>= (+ (* b_6_0_0 var_1_2) (* b_6_0_1 var_6_2)) (- 2147483648))))
(assert
 (and (<= (* b_6_0_2 var_7_0) 2147483647) (>= (* b_6_0_2 var_7_0) (- 2147483648))))
(assert
 (let ((?x698 (* b_6_0_2 var_7_0)))
 (let ((?x696 (* b_6_0_1 var_6_2)))
 (let ((?x694 (* b_6_0_0 var_1_2)))
 (let ((?x739 (+ ?x694 ?x696)))
 (let ((?x752 (+ ?x739 ?x698)))
 (and (<= ?x752 2147483647) (>= ?x752 (- 2147483648)))))))))
(assert
 (and (<= (* b_6_0_3 var_5_1) 2147483647) (>= (* b_6_0_3 var_5_1) (- 2147483648))))
(assert
 (let ((?x700 (* b_6_0_3 var_5_1)))
 (let ((?x698 (* b_6_0_2 var_7_0)))
 (let ((?x696 (* b_6_0_1 var_6_2)))
 (let ((?x694 (* b_6_0_0 var_1_2)))
 (let ((?x739 (+ ?x694 ?x696)))
 (let ((?x752 (+ ?x739 ?x698)))
 (let ((?x765 (+ ?x752 ?x700)))
 (and (<= ?x765 2147483647) (>= ?x765 (- 2147483648)))))))))))
(assert
 (let (($x730 (>= b_6_8 (- 2147483648))))
 (let (($x731 (<= b_6_8 2147483647)))
 (and $x731 $x730))))
(assert
 (let ((?x700 (* b_6_0_3 var_5_1)))
 (let ((?x698 (* b_6_0_2 var_7_0)))
 (let ((?x696 (* b_6_0_1 var_6_2)))
 (let ((?x694 (* b_6_0_0 var_1_2)))
 (let ((?x739 (+ ?x694 ?x696)))
 (let ((?x752 (+ ?x739 ?x698)))
 (let ((?x765 (+ ?x752 ?x700)))
 (let ((?x778 (+ ?x765 b_6_8)))
 (and (<= ?x778 2147483647) (>= ?x778 (- 2147483648))))))))))))
(assert
 (let ((?x700 (* b_6_0_3 var_5_1)))
 (let ((?x698 (* b_6_0_2 var_7_0)))
 (let ((?x696 (* b_6_0_1 var_6_2)))
 (let ((?x694 (* b_6_0_0 var_1_2)))
 (let ((?x739 (+ ?x694 ?x696)))
 (let ((?x752 (+ ?x739 ?x698)))
 (let ((?x765 (+ ?x752 ?x700)))
 (let ((?x778 (+ ?x765 b_6_8)))
 (< ?x778 0))))))))))
(assert
 (let (($x158 (<= var_0_0 2147483647)))
 (let (($x157 (>= var_0_0 (- 2147483648))))
 (and $x157 $x158))))
(assert
 (let (($x536 (<= var_6_2 2147483647)))
 (let (($x535 (>= var_6_2 (- 2147483648))))
 (and $x535 $x536))))
(assert
 (let (($x796 (<= a_1_0_0 2147483647)))
 (let (($x795 (>= a_1_0_0 (- 2147483648))))
 (let (($x797 (and $x795 $x796)))
 (let (($x798 (and true $x797)))
 (and $x798 (and (>= a_1_0_1 (- 2147483648)) (<= a_1_0_1 2147483647))))))))
(assert
 (let (($x805 (<= a_1_0 2147483647)))
 (let (($x804 (>= a_1_0 (- 2147483648))))
 (and $x804 $x805))))
(assert
 (and (<= (* a_1_0_0 var_0_0) 2147483647) (>= (* a_1_0_0 var_0_0) (- 2147483648))))
(assert
 (and (<= (* a_1_0_0 var_0_0) 2147483647) (>= (* a_1_0_0 var_0_0) (- 2147483648))))
(assert
 (and (<= (* a_1_0_1 var_6_2) 2147483647) (>= (* a_1_0_1 var_6_2) (- 2147483648))))
(assert
 (and (<= (+ (* a_1_0_0 var_0_0) (* a_1_0_1 var_6_2)) 2147483647) (>= (+ (* a_1_0_0 var_0_0) (* a_1_0_1 var_6_2)) (- 2147483648))))
(assert
 (let (($x804 (>= a_1_0 (- 2147483648))))
 (let (($x805 (<= a_1_0 2147483647)))
 (and $x805 $x804))))
(assert
 (let ((?x794 (* a_1_0_1 var_6_2)))
 (let ((?x792 (* a_1_0_0 var_0_0)))
 (let ((?x813 (+ ?x792 ?x794)))
 (let ((?x826 (+ ?x813 a_1_0)))
 (and (<= ?x826 2147483647) (>= ?x826 (- 2147483648))))))))
(assert
 (let ((?x794 (* a_1_0_1 var_6_2)))
 (let ((?x792 (* a_1_0_0 var_0_0)))
 (let ((?x813 (+ ?x792 ?x794)))
 (let ((?x826 (+ ?x813 a_1_0)))
 (= var_3_1 ?x826))))))
(assert
 (let ((?x844 (ite (= a_1_0 0) 1 0)))
 (let ((?x842 (ite (= a_1_0_1 0) 1 0)))
 (let ((?x838 (ite (= a_1_0_0 0) 1 0)))
 (<= (+ ?x838 ?x842 ?x844) 1)))))
(assert
 (let (($x848 (<= var_3_1 2147483647)))
 (let (($x847 (>= var_3_1 (- 2147483648))))
 (and $x847 $x848))))
(assert
 (let (($x256 (<= var_2_0 2147483647)))
 (let (($x255 (>= var_2_0 (- 2147483648))))
 (and $x255 $x256))))
(assert
 (let (($x536 (<= var_6_2 2147483647)))
 (let (($x535 (>= var_6_2 (- 2147483648))))
 (and $x535 $x536))))
(assert
 (let (($x158 (<= var_0_0 2147483647)))
 (let (($x157 (>= var_0_0 (- 2147483648))))
 (and $x157 $x158))))
(assert
 (let (($x859 (<= b_1_0_0 2147483647)))
 (let (($x858 (>= b_1_0_0 (- 2147483648))))
 (let (($x860 (and $x858 $x859)))
 (let (($x861 (and true $x860)))
 (let (($x865 (and $x861 (and (>= b_1_0_1 (- 2147483648)) (<= b_1_0_1 2147483647)))))
 (let (($x869 (and $x865 (and (>= b_1_0_2 (- 2147483648)) (<= b_1_0_2 2147483647)))))
 (and $x869 (and (>= b_1_0_3 (- 2147483648)) (<= b_1_0_3 2147483647))))))))))
(assert
 (let ((?x883 (ite (= b_1_0_3 0) 1 0)))
 (let ((?x881 (ite (= b_1_0_2 0) 1 0)))
 (let ((?x879 (ite (= b_1_0_1 0) 1 0)))
 (let ((?x877 (ite (= b_1_0_0 0) 1 0)))
 (<= (+ ?x877 ?x879 ?x881 ?x883) 2))))))
(assert
 (let (($x888 (<= b_1_8 2147483647)))
 (let (($x887 (>= b_1_8 (- 2147483648))))
 (and $x887 $x888))))
(assert
 (and (<= (* b_1_0_0 var_3_1) 2147483647) (>= (* b_1_0_0 var_3_1) (- 2147483648))))
(assert
 (and (<= (* b_1_0_0 var_3_1) 2147483647) (>= (* b_1_0_0 var_3_1) (- 2147483648))))
(assert
 (and (<= (* b_1_0_1 var_2_0) 2147483647) (>= (* b_1_0_1 var_2_0) (- 2147483648))))
(assert
 (and (<= (+ (* b_1_0_0 var_3_1) (* b_1_0_1 var_2_0)) 2147483647) (>= (+ (* b_1_0_0 var_3_1) (* b_1_0_1 var_2_0)) (- 2147483648))))
(assert
 (and (<= (* b_1_0_2 var_6_2) 2147483647) (>= (* b_1_0_2 var_6_2) (- 2147483648))))
(assert
 (let ((?x855 (* b_1_0_2 var_6_2)))
 (let ((?x853 (* b_1_0_1 var_2_0)))
 (let ((?x851 (* b_1_0_0 var_3_1)))
 (let ((?x896 (+ ?x851 ?x853)))
 (let ((?x909 (+ ?x896 ?x855)))
 (and (<= ?x909 2147483647) (>= ?x909 (- 2147483648)))))))))
(assert
 (and (<= (* b_1_0_3 var_0_0) 2147483647) (>= (* b_1_0_3 var_0_0) (- 2147483648))))
(assert
 (let ((?x857 (* b_1_0_3 var_0_0)))
 (let ((?x855 (* b_1_0_2 var_6_2)))
 (let ((?x853 (* b_1_0_1 var_2_0)))
 (let ((?x851 (* b_1_0_0 var_3_1)))
 (let ((?x896 (+ ?x851 ?x853)))
 (let ((?x909 (+ ?x896 ?x855)))
 (let ((?x922 (+ ?x909 ?x857)))
 (and (<= ?x922 2147483647) (>= ?x922 (- 2147483648)))))))))))
(assert
 (let (($x887 (>= b_1_8 (- 2147483648))))
 (let (($x888 (<= b_1_8 2147483647)))
 (and $x888 $x887))))
(assert
 (let ((?x857 (* b_1_0_3 var_0_0)))
 (let ((?x855 (* b_1_0_2 var_6_2)))
 (let ((?x853 (* b_1_0_1 var_2_0)))
 (let ((?x851 (* b_1_0_0 var_3_1)))
 (let ((?x896 (+ ?x851 ?x853)))
 (let ((?x909 (+ ?x896 ?x855)))
 (let ((?x922 (+ ?x909 ?x857)))
 (let ((?x935 (+ ?x922 b_1_8)))
 (and (<= ?x935 2147483647) (>= ?x935 (- 2147483648))))))))))))
(assert
 (let ((?x857 (* b_1_0_3 var_0_0)))
 (let ((?x855 (* b_1_0_2 var_6_2)))
 (let ((?x853 (* b_1_0_1 var_2_0)))
 (let ((?x851 (* b_1_0_0 var_3_1)))
 (let ((?x896 (+ ?x851 ?x853)))
 (let ((?x909 (+ ?x896 ?x855)))
 (let ((?x922 (+ ?x909 ?x857)))
 (let ((?x935 (+ ?x922 b_1_8)))
 (< ?x935 0))))))))))
(assert
 (let (($x416 (<= var_7_0 2147483647)))
 (let (($x415 (>= var_7_0 (- 2147483648))))
 (and $x415 $x416))))
(assert
 (let (($x691 (<= var_1_2 2147483647)))
 (let (($x690 (>= var_1_2 (- 2147483648))))
 (and $x690 $x691))))
(assert
 (let (($x953 (<= a_9_0_0 2147483647)))
 (let (($x952 (>= a_9_0_0 (- 2147483648))))
 (let (($x954 (and $x952 $x953)))
 (let (($x955 (and true $x954)))
 (and $x955 (and (>= a_9_0_1 (- 2147483648)) (<= a_9_0_1 2147483647))))))))
(assert
 (let (($x962 (<= a_9_0 2147483647)))
 (let (($x961 (>= a_9_0 (- 2147483648))))
 (and $x961 $x962))))
(assert
 (and (<= (* a_9_0_0 var_7_0) 2147483647) (>= (* a_9_0_0 var_7_0) (- 2147483648))))
(assert
 (and (<= (* a_9_0_0 var_7_0) 2147483647) (>= (* a_9_0_0 var_7_0) (- 2147483648))))
(assert
 (and (<= (* a_9_0_1 var_1_2) 2147483647) (>= (* a_9_0_1 var_1_2) (- 2147483648))))
(assert
 (and (<= (+ (* a_9_0_0 var_7_0) (* a_9_0_1 var_1_2)) 2147483647) (>= (+ (* a_9_0_0 var_7_0) (* a_9_0_1 var_1_2)) (- 2147483648))))
(assert
 (let (($x961 (>= a_9_0 (- 2147483648))))
 (let (($x962 (<= a_9_0 2147483647)))
 (and $x962 $x961))))
(assert
 (let ((?x951 (* a_9_0_1 var_1_2)))
 (let ((?x949 (* a_9_0_0 var_7_0)))
 (let ((?x970 (+ ?x949 ?x951)))
 (let ((?x983 (+ ?x970 a_9_0)))
 (and (<= ?x983 2147483647) (>= ?x983 (- 2147483648))))))))
(assert
 (let ((?x951 (* a_9_0_1 var_1_2)))
 (let ((?x949 (* a_9_0_0 var_7_0)))
 (let ((?x970 (+ ?x949 ?x951)))
 (let ((?x983 (+ ?x970 a_9_0)))
 (= var_1_3 ?x983))))))
(assert
 (let ((?x1001 (ite (= a_9_0 0) 1 0)))
 (let ((?x999 (ite (= a_9_0_1 0) 1 0)))
 (let ((?x995 (ite (= a_9_0_0 0) 1 0)))
 (<= (+ ?x995 ?x999 ?x1001) 1)))))
(check-sat)
